c File: instances/30_0.05_2.col
c
c Description: Random graph of size 30 vertices and P(0.05) of edges between any two vertices.
p col 30 435
e 1 2
e 1 22
e 1 23
e 1 30
e 2 8
e 3 7
e 3 13
e 3 26
e 4 14
e 6 9
e 6 22
e 7 8
e 7 21
e 9 23
e 11 13
e 12 19
e 14 24
e 14 28
e 15 18
e 15 23
e 17 30
e 19 25
e 20 22
e 21 30
e 22 28
e 23 25